Figure: small_1
File Number: 12
Nodes: 11
Edges: 20
Max Generations: 1000
Population Size: 100
Mutation Rate: 0.01
Colors Used: 4
Runtime: 0.00

Generation,Average Fitness,Best Fitness
0,6.99,2
1,6.06,2
2,5.41,1
3,5.29,1
4,4.84,1
5,4.29,1
6,3.91,1
7,3.89,1
8,3.23,1
9,2.52,1
10,2.06,1
11,1.6,1
12,1.34,1
13,1.18,1
14,1.14,1
15,1.24,1
16,1.1,1
17,1.23,1
18,1.11,1
19,1.06,1
20,1.04,1
21,1.14,1
22,1.07,1
23,1.12,1
24,1.11,1
25,1.08,1
26,1.09,1
27,1.06,1
28,1.22,1
29,1.2,1
30,1.11,1
31,1.14,1
32,1.16,1
33,1.14,1
34,1.1,1
35,1.11,1
36,1.1,1
37,1.13,1
38,1.14,1
39,1.12,1
40,1.11,1
41,1.1,1
42,1.12,1
43,1.07,1
44,1.12,1
45,1.13,1
46,1.16,1
47,1.06,1
48,1.08,1
49,1.08,1
50,1.14,1
51,1.22,1
52,1.19,1
53,1.17,1
54,1.15,1
55,1.15,1
56,1.16,1
57,1.18,1
58,1.14,1
59,1.08,1
60,1.08,1
61,1.13,1
62,1.1,1
63,1.31,1
64,1.15,1
65,1.22,1
66,1.07,1
67,1.11,1
68,1.17,1
69,1.14,1
70,1.19,1
71,1.06,1
72,1.09,1
73,1.06,1
74,1.11,1
75,1.09,1
76,1.08,1
77,1.06,1
78,1.07,1
79,1.09,1
80,1.05,1
81,1.16,1
82,1.11,1
83,1.17,1
84,1.16,1
85,1.11,1
86,1.14,1
87,1.13,1
88,1.09,1
89,1.1,1
90,1.08,1
91,1.13,1
92,1.03,1
93,1.1,1
94,1.07,1
95,1.16,1
96,1.15,1
97,1.07,1
98,1.07,1
99,1.11,1
100,1.18,1
101,1.06,1
102,1.09,1
103,1.08,1
104,1.12,1
105,1.09,1
106,1.24,1
107,1.15,1
108,1.09,1
109,1.22,1
110,1.31,1
111,1.14,1
112,1.05,1
113,1.11,1
114,1.1,1
115,1.09,1
116,1.1,1
117,1.1,1
118,1.13,1
119,1.09,1
120,1.13,1
121,1.15,1
122,1.05,1
123,1.21,1
124,1.1,1
125,1.06,1
126,1.17,1
127,1.14,1
128,1.15,1
129,1.12,1
130,1.25,1
131,1.16,1
132,1.07,1
133,1.15,1
134,1.19,1
135,1.15,1
136,1.07,1
137,1.15,1
138,1.18,1
139,1.14,1
140,1.23,1
141,1.15,1
142,1.15,1
143,1.12,1
144,1.19,1
145,1.13,1
146,1.22,1
147,1.14,1
148,1.21,1
149,1.09,1
150,1.11,1
151,1.17,1
152,1.1,1
153,1.14,1
154,1.17,1
155,1.16,1
156,1.17,1
157,1.1,1
158,1.18,1
159,1.21,1
160,1.18,1
161,1.08,1
162,1.09,1
163,1.17,1
164,1.11,1
165,1.04,1
166,1.32,1
167,1.13,1
168,1.04,1
169,1.1,1
170,1.04,1
171,1.17,1
172,1.14,1
173,1.08,1
174,1.24,1
175,1.06,1
176,1.08,1
177,1.07,1
178,1.08,1
179,1.04,1
180,1.06,1
181,1.1,1
182,1.05,1
183,1.09,1
184,1.11,1
185,1.19,1
186,1.14,1
187,1.07,1
188,1.25,1
189,1.13,1
190,1.09,1
191,1.04,1
192,1.05,1
193,1.16,1
194,1.14,1
195,1.16,1
196,1.12,1
197,1.04,1
198,1.19,1
199,1.18,1
200,1.13,1
201,1.07,1
202,1.07,1
203,1.11,1
204,1.08,1
205,1.08,1
206,1.01,1
207,1.16,1
208,1.16,1
209,1.13,1
210,1.14,1
211,1.13,1
212,1.11,1
213,1.06,1
214,1.07,1
215,1.04,1
216,1.09,1
217,1.08,1
218,1.11,1
219,1.16,1
220,1.12,1
221,1.14,1
222,1.08,1
223,1.05,1
224,1.08,1
225,1.12,1
226,1.1,1
227,1.11,1
228,1.11,1
229,1.04,1
230,1.12,1
231,1.08,1
232,1.17,1
233,1.07,1
234,1.07,1
235,1.13,1
236,1.21,1
237,1.16,1
238,1.12,1
239,1.06,1
240,1.1,1
241,1.13,1
242,1.23,1
243,1.13,1
244,1.2,1
245,1.14,1
246,1.18,1
247,1.12,1
248,1.08,1
249,1.09,1
250,1.12,1
251,1.12,1
252,1.17,1
253,1.11,1
254,1.07,1
255,1.09,1
256,1.16,1
257,1.03,1
258,1.2,1
259,1.11,1
260,1.11,1
261,1.1,1
262,1.11,1
263,1.06,1
264,1.02,1
265,1.08,1
266,1.16,1
267,1.06,1
268,1.1,1
269,1.24,1
270,1.11,1
271,1.09,1
272,1.13,1
273,1.13,1
274,1.11,1
275,1.18,1
276,1.06,1
277,1.08,1
278,1.05,1
279,1.13,1
280,1.17,1
281,1.07,1
282,1.15,1
283,1.13,1
284,1.09,1
285,1.07,1
286,1.19,1
287,1.05,1
288,1.18,1
289,1.21,1
290,1.14,1
291,1.08,1
292,1.14,1
293,1.16,1
294,1.14,1
295,1.11,1
296,1.04,1
297,1.18,1
298,1.12,1
299,1.06,1
300,1.05,1
301,1.13,1
302,1.21,1
303,1.16,1
304,1.1,1
305,1.15,1
306,1.13,1
307,1.09,1
308,1.14,1
309,1.22,1
310,1.24,1
311,1.12,1
312,1.26,1
313,1.06,1
314,1.17,1
315,1.14,1
316,1.1,1
317,1.14,1
318,1.06,1
319,1.11,1
320,1.1,1
321,1.16,1
322,1.12,1
323,1.11,1
324,1.13,1
325,1.03,1
326,1.02,1
327,1.08,1
328,1.25,1
329,1.21,1
330,1.09,1
331,1.11,1
332,1.18,1
333,1.4,1
334,1.07,1
335,1.12,1
336,1.05,1
337,1.08,1
338,1.19,1
339,1.08,1
340,1.07,1
341,1.22,1
342,1.11,1
343,1.14,1
344,1.19,1
345,1.12,1
346,1.15,1
347,1.13,1
348,1.16,1
349,1.16,1
350,1.2,1
351,1.13,1
352,1.17,1
353,1.14,1
354,1.11,1
355,1.1,1
356,1.1,1
357,1.12,1
358,1.12,1
359,1.1,1
360,1.14,1
361,1.19,1
362,1.17,1
363,1.12,1
364,1.1,1
365,1.03,1
366,1.15,1
367,1.05,1
368,1.06,1
369,1.08,1
370,1.07,1
371,1.2,1
372,1.18,1
373,1.12,1
374,1.09,1
375,1.24,1
376,1.14,1
377,1.08,1
378,1.1,1
379,1.1,1
380,1.12,1
381,1.13,1
382,1.09,1
383,1.18,1
384,1.08,1
385,1.04,1
386,1.14,1
387,1.09,1
388,1.16,1
389,1.12,1
390,1.04,1
391,1.07,1
392,1.1,1
393,1.19,1
394,1.04,1
395,1.14,1
396,1.13,1
397,1.05,1
398,1.12,1
399,1.13,1
400,1.22,1
401,1.23,1
402,1.17,1
403,1.09,1
404,1.06,1
405,1.06,1
406,1.08,1
407,1.19,1
408,1.12,1
409,1.08,1
410,1.26,1
411,1.06,1
412,1.13,1
413,1.16,1
414,1.16,1
415,1.08,1
416,1.12,1
417,1.06,1
418,1.09,1
419,1.09,1
420,1.18,1
421,1.13,1
422,1.12,1
423,1.12,1
424,1.02,1
425,1.16,1
426,1.15,1
427,1.15,1
428,1.19,1
429,1.23,1
430,1.2,1
431,1.11,1
432,1.17,1
433,1.07,1
434,1.15,1
435,1.11,1
436,1.08,1
437,1.17,1
438,1.04,1
439,1.09,1
440,1.07,1
441,1.23,1
442,1.03,1
443,1.14,1
444,1.05,1
445,1.2,1
446,1.15,1
447,1.14,1
448,1.03,1
449,1.08,1
450,1.19,1
451,1.16,1
452,1.21,1
453,1.15,1
454,1.12,1
455,1.13,1
456,1.14,1
457,1.1,1
458,1.12,1
459,1.14,1
460,1.21,1
461,1.15,1
462,1.11,1
463,1.22,1
464,1.16,1
465,1.22,1
466,1.14,1
467,1.19,1
468,1.07,1
469,1.07,1
470,1.17,1
471,1.1,1
472,1.18,1
473,1.08,1
474,1.11,1
475,1.11,1
476,1.11,1
477,1.04,1
478,1.08,1
479,1.13,1
480,1.11,1
481,1.1,1
482,1.14,1
483,1.1,1
484,1.18,1
485,1.09,1
486,1.13,1
487,1.13,1
488,1.33,1
489,1.17,1
490,1.21,1
491,1.14,1
492,1.14,1
493,1.09,1
494,1.18,1
495,1.26,1
496,1.14,1
497,1.11,1
498,1.1,1
499,1.15,1
500,1.14,1
501,1.17,1
502,1.08,1
503,1.08,1
504,1.17,1
505,1.11,1
506,1.24,1
507,1.08,1
508,1.17,1
509,1.08,1
510,1.16,1
511,1.17,1
512,1.14,1
513,1.16,1
514,1.18,1
515,1.06,1
516,1.03,1
517,1.07,1
518,1.12,1
519,1.07,1
520,1.12,1
521,1.11,1
522,1.2,1
523,1.18,1
524,1.16,1
525,1.1,1
526,1.13,1
527,1.08,1
528,1.05,1
529,1.12,1
530,1.1,1
531,1.15,1
532,1.09,1
533,1.12,1
534,1.02,1
535,1.09,1
536,1.1,1
537,1.13,1
538,1.09,1
539,1.1,1
540,1.14,1
541,1.09,1
542,1.07,1
543,1.15,1
544,1.19,1
545,1.1,1
546,1.14,1
547,1.2,1
548,1.17,1
549,1.17,1
550,1.13,1
551,1.12,1
552,1.12,1
553,1.14,1
554,1.05,1
555,1.26,1
556,1.05,1
557,1.04,1
558,1.1,1
559,1.11,1
560,1.09,1
561,1.14,1
562,1.13,1
563,1.03,1
564,1.09,1
565,1.05,1
566,1.04,1
567,1.05,1
568,1.13,1
569,1.14,1
570,1.05,1
571,1.14,1
572,1.11,1
573,1.18,1
574,1.16,1
575,1.16,1
576,1.08,1
577,1.16,1
578,1.24,1
579,1.12,1
580,1.03,1
581,1.08,1
582,1.11,1
583,1.07,1
584,1.16,1
585,1.13,1
586,1.23,1
587,1.13,1
588,1.09,1
589,1.15,1
590,1.16,1
591,1.08,1
592,1.06,1
593,1.12,1
594,1.08,1
595,1.16,1
596,1.1,1
597,1.1,1
598,1.09,1
599,1.1,1
600,1.14,1
601,1.09,1
602,1.09,1
603,1.14,1
604,1.32,1
605,1.17,1
606,1.16,1
607,1.1,1
608,1.15,1
609,1.2,1
610,1.09,1
611,1.06,1
612,1.15,1
613,1.19,1
614,1.14,1
615,1.19,1
616,1.14,1
617,1.11,1
618,1.12,1
619,1.1,1
620,1.15,1
621,1.1,1
622,1.01,1
623,1.12,1
624,1.16,1
625,1.18,1
626,1.08,1
627,1.15,1
628,1.18,1
629,1.15,1
630,1.18,1
631,1.07,1
632,1.07,1
633,1.1,1
634,1.14,1
635,1.14,1
636,1.08,1
637,1.18,1
638,1.28,1
639,1.06,1
640,1.21,1
641,1.09,1
642,1.05,1
643,1.08,1
644,1.1,1
645,1.08,1
646,1.1,1
647,1.17,1
648,1.14,1
649,1.15,1
650,1.1,1
651,1.1,1
652,1.07,1
653,1.04,1
654,1.14,1
655,1.09,1
656,1.14,1
657,1.14,1
658,1.15,1
659,1.06,1
660,1.14,1
661,1.15,1
662,1.17,1
663,1.12,1
664,1.09,1
665,1.09,1
666,1.03,1
667,1.15,1
668,1.14,1
669,1.1,1
670,1.16,1
671,1.18,1
672,1.04,1
673,1.13,1
674,1.11,1
675,1.07,1
676,1.22,1
677,1.11,1
678,1.11,1
679,1.02,1
680,1.12,1
681,1.05,1
682,1.12,1
683,1.15,1
684,1.14,1
685,1.05,1
686,1.07,1
687,1.07,1
688,1.13,1
689,1.22,1
690,1.19,1
691,1.19,1
692,1.14,1
693,1.08,1
694,1.12,1
695,1.17,1
696,1.06,1
697,1.2,1
698,1.19,1
699,1.16,1
700,1.15,1
701,1.07,1
702,1.06,1
703,1.06,1
704,1.1,1
705,1.1,1
706,1.09,1
707,1.26,1
708,1.16,1
709,1.13,1
710,1.18,1
711,1.24,1
712,1.17,1
713,1.17,1
714,1.1,1
715,1.13,1
716,1.17,1
717,1.14,1
718,1.14,1
719,1.08,1
720,1.13,1
721,1.15,1
722,1.23,1
723,1.22,1
724,1.06,1
725,1.13,1
726,1.14,1
727,1.09,1
728,1.19,1
729,1.11,1
730,1.16,1
731,1.06,1
732,1.19,1
733,1.19,1
734,1.19,1
735,1.1,1
736,1.15,1
737,1.11,1
738,1.08,1
739,1.02,1
740,1.09,1
741,1.1,1
742,1.11,1
743,1.1,1
744,1.11,1
745,1.09,1
746,1.18,1
747,1.11,1
748,1.13,1
749,1.1,1
750,1.12,1
751,1.05,1
752,1.15,1
753,1.16,1
754,1.11,1
755,1.12,1
756,1.17,1
757,1.14,1
758,1.09,1
759,1.11,1
760,1.12,1
761,1.14,1
762,1.07,1
763,1.14,1
764,1.1,1
765,1.06,1
766,1.19,1
767,1.07,1
768,1.15,1
769,1.16,1
770,1.13,1
771,1.09,1
772,1.02,1
773,1.02,1
774,1.21,1
775,1.12,1
776,1.15,1
777,1.19,1
778,1.1,1
779,1.03,1
780,1.19,1
781,1.15,1
782,1.06,1
783,1.16,1
784,1.09,1
785,1.13,1
786,1.09,1
787,1.2,1
788,1.15,1
789,1.24,1
790,1.08,1
791,1.26,1
792,1.14,1
793,1.2,1
794,1.17,1
795,1.12,1
796,1.03,1
797,1.09,1
798,1.1,1
799,1.19,1
800,1.1,1
801,1.12,1
802,1.1,1
803,1.2,1
804,1.16,1
805,1.1,1
806,1.14,1
807,1.07,1
808,1.13,1
809,1.17,1
810,1.16,1
811,1.1,1
812,1.03,1
813,1.09,1
814,1.12,1
815,1.08,1
816,1.14,1
817,1.11,1
818,1.14,1
819,1.11,1
820,1.09,1
821,1.12,1
822,1.07,1
823,1.07,1
824,1.12,1
825,1.22,1
826,1.15,1
827,1.06,1
828,1.06,1
829,1.1,1
830,1.1,1
831,1.17,1
832,1.15,1
833,1.17,1
834,1.16,1
835,1.15,1
836,1.14,1
837,1.07,1
838,1.15,1
839,1.1,1
840,1.06,1
841,1.13,1
842,1.14,1
843,1.12,1
844,1.13,1
845,1.13,1
846,1.09,1
847,1.06,1
848,1.25,1
849,1.05,1
850,1.1,1
851,1.13,1
852,1.04,1
853,1.17,1
854,1.13,1
855,1.25,1
856,1.17,1
857,1.08,1
858,1.13,1
859,1.08,1
860,1.2,1
861,1.17,1
862,1.04,1
863,1.17,1
864,1.2,1
865,1.1,1
866,1.12,1
867,1.06,1
868,1.13,1
869,1.08,1
870,1.15,1
871,1.1,1
872,1.11,1
873,1.09,1
874,1.11,1
875,1.11,1
876,1.12,1
877,1.16,1
878,1.07,1
879,1.13,1
880,1.15,1
881,1.16,1
882,1.1,1
883,1.1,1
884,1.15,1
885,1.13,1
886,1.09,1
887,1.12,1
888,1.14,1
889,1.23,1
890,1.09,1
891,1.16,1
892,1.18,1
893,1.16,1
894,1.05,1
895,1.11,1
896,1.1,1
897,1.11,1
898,1.08,1
899,1.12,1
900,1.12,1
901,1.12,1
902,1.13,1
903,1.08,1
904,1.05,1
905,1.16,1
906,1.06,1
907,1.03,1
908,1.08,1
909,1.08,1
910,1.06,1
911,1.09,1
912,1.13,1
913,1.2,1
914,1.26,1
915,1.1,1
916,1.07,1
917,1.11,1
918,1.14,1
919,1.12,1
920,1.06,1
921,1.12,1
922,1.22,1
923,1.08,1
924,1.16,1
925,1.13,1
926,1.16,1
927,1.09,1
928,1.16,1
929,1.17,1
930,1.22,1
931,1.08,1
932,1.08,1
933,1.19,1
934,1.17,1
935,1.11,1
936,1.19,1
937,1.2,1
938,1.1,1
939,1.1,1
940,1.16,1
941,1.09,1
942,1.04,1
943,1.05,1
944,1.15,1
945,1.14,1
946,1.12,1
947,1.23,1
948,1.11,1
949,1.15,1
950,1.09,1
951,1.07,1
952,1.09,1
953,1.12,1
954,1.1,1
955,1.15,1
956,1.18,1
957,1.09,1
958,1.13,1
959,1.08,1
960,1.09,1
961,1.06,1
962,1.04,1
963,1.08,1
964,1.12,1
965,1.12,1
966,1.14,1
967,1.11,1
968,1.11,1
969,1.16,1
970,1.09,1
971,1.13,1
972,1.13,1
973,1.04,1
974,1.1,1
975,1.02,1
976,1.14,1
977,1.2,1
978,1.04,1
979,1.13,1
980,1.08,1
981,1.06,1
982,1.09,1
983,1.1,1
984,1.18,1
985,1.12,1
986,1.04,1
987,1.15,1
988,1.17,1
989,1.12,1
990,1.12,1
991,1.11,1
992,1.08,1
993,1.19,1
994,1.17,1
995,1.12,1
996,1.11,1
997,1.12,1
998,1.02,1
999,1.07,1
